certificates/rado_a15_c289_N44.cnf
c Rad2 upper bound instance: x1 + 15*x2 - x3 = 289, interval [1,44]
p cnf 44 258
1 12 20 0
-1 -12 -20 0
1 21 27 0
-1 -21 -27 0
1 22 42 0
-1 -22 -42 0
2 13 20 0
-2 -13 -20 0
2 21 28 0
-2 -21 -28 0
2 22 43 0
-2 -22 -43 0
3 14 20 0
-3 -14 -20 0
3 21 29 0
-3 -21 -29 0
3 22 44 0
-3 -22 -44 0
4 15 20 0
-4 -15 -20 0
4 21 30 0
-4 -21 -30 0
1 5 19 0
-1 -5 -19 0
5 16 20 0
-5 -16 -20 0
5 21 31 0
-5 -21 -31 0
2 6 19 0
-2 -6 -19 0
6 17 20 0
-6 -17 -20 0
6 21 32 0
-6 -21 -32 0
3 7 19 0
-3 -7 -19 0
7 18 20 0
-7 -18 -20 0
7 21 33 0
-7 -21 -33 0
4 8 19 0
-4 -8 -19 0
8 19 20 0
-8 -19 -20 0
8 21 34 0
-8 -21 -34 0
5 9 19 0
-5 -9 -19 0
9 20 0
-9 -20 0
9 21 35 0
-9 -21 -35 0
6 10 19 0
-6 -10 -19 0
10 20 21 0
-10 -20 -21 0
10 21 36 0
-10 -21 -36 0
7 11 19 0
-7 -11 -19 0
11 20 22 0
-11 -20 -22 0
11 21 37 0
-11 -21 -37 0
8 12 19 0
-8 -12 -19 0
12 20 23 0
-12 -20 -23 0
12 21 38 0
-12 -21 -38 0
9 13 19 0
-9 -13 -19 0
13 20 24 0
-13 -20 -24 0
13 21 39 0
-13 -21 -39 0
10 14 19 0
-10 -14 -19 0
14 20 25 0
-14 -20 -25 0
14 21 40 0
-14 -21 -40 0
11 15 19 0
-11 -15 -19 0
15 20 26 0
-15 -20 -26 0
15 21 41 0
-15 -21 -41 0
12 16 19 0
-12 -16 -19 0
16 20 27 0
-16 -20 -27 0
16 21 42 0
-16 -21 -42 0
13 17 19 0
-13 -17 -19 0
17 20 28 0
-17 -20 -28 0
17 21 43 0
-17 -21 -43 0
14 18 19 0
-14 -18 -19 0
18 20 29 0
-18 -20 -29 0
18 21 44 0
-18 -21 -44 0
15 19 0
-15 -19 0
19 20 30 0
-19 -20 -30 0
1 18 20 0
-1 -18 -20 0
16 19 20 0
-16 -19 -20 0
20 31 0
-20 -31 0
2 18 21 0
-2 -18 -21 0
17 19 21 0
-17 -19 -21 0
20 21 32 0
-20 -21 -32 0
3 18 22 0
-3 -18 -22 0
18 19 22 0
-18 -19 -22 0
20 22 33 0
-20 -22 -33 0
4 18 23 0
-4 -18 -23 0
19 23 0
-19 -23 0
20 23 34 0
-20 -23 -34 0
5 18 24 0
-5 -18 -24 0
19 20 24 0
-19 -20 -24 0
20 24 35 0
-20 -24 -35 0
6 18 25 0
-6 -18 -25 0
19 21 25 0
-19 -21 -25 0
20 25 36 0
-20 -25 -36 0
7 18 26 0
-7 -18 -26 0
19 22 26 0
-19 -22 -26 0
20 26 37 0
-20 -26 -37 0
8 18 27 0
-8 -18 -27 0
19 23 27 0
-19 -23 -27 0
20 27 38 0
-20 -27 -38 0
9 18 28 0
-9 -18 -28 0
19 24 28 0
-19 -24 -28 0
20 28 39 0
-20 -28 -39 0
10 18 29 0
-10 -18 -29 0
19 25 29 0
-19 -25 -29 0
20 29 40 0
-20 -29 -40 0
11 18 30 0
-11 -18 -30 0
19 26 30 0
-19 -26 -30 0
20 30 41 0
-20 -30 -41 0
12 18 31 0
-12 -18 -31 0
19 27 31 0
-19 -27 -31 0
20 31 42 0
-20 -31 -42 0
13 18 32 0
-13 -18 -32 0
19 28 32 0
-19 -28 -32 0
20 32 43 0
-20 -32 -43 0
14 18 33 0
-14 -18 -33 0
19 29 33 0
-19 -29 -33 0
20 33 44 0
-20 -33 -44 0
15 18 34 0
-15 -18 -34 0
19 30 34 0
-19 -30 -34 0
1 17 35 0
-1 -17 -35 0
16 18 35 0
-16 -18 -35 0
19 31 35 0
-19 -31 -35 0
2 17 36 0
-2 -17 -36 0
17 18 36 0
-17 -18 -36 0
19 32 36 0
-19 -32 -36 0
3 17 37 0
-3 -17 -37 0
18 37 0
-18 -37 0
19 33 37 0
-19 -33 -37 0
4 17 38 0
-4 -17 -38 0
18 19 38 0
-18 -19 -38 0
19 34 38 0
-19 -34 -38 0
5 17 39 0
-5 -17 -39 0
18 20 39 0
-18 -20 -39 0
19 35 39 0
-19 -35 -39 0
6 17 40 0
-6 -17 -40 0
18 21 40 0
-18 -21 -40 0
19 36 40 0
-19 -36 -40 0
7 17 41 0
-7 -17 -41 0
18 22 41 0
-18 -22 -41 0
19 37 41 0
-19 -37 -41 0
8 17 42 0
-8 -17 -42 0
18 23 42 0
-18 -23 -42 0
19 38 42 0
-19 -38 -42 0
9 17 43 0
-9 -17 -43 0
18 24 43 0
-18 -24 -43 0
19 39 43 0
-19 -39 -43 0
10 17 44 0
-10 -17 -44 0
18 25 44 0
-18 -25 -44 0
19 40 44 0
-19 -40 -44 0
