certificates/rado_a15_c289_N44.drat
19 -41 -42 -43 0
-41 -42 -43 -44 0
21 40 41 -42 0
-21 -42 -43 -44 0
-42 -43 -44 0
d -41 -42 -43 -44 0
-40 41 -43 -44 0
21 40 41 0
d 21 40 41 -42 0
41 -43 -44 0
d -40 41 -43 -44 0
-21 -43 -44 0
d -21 -42 -43 -44 0
40 21 -44 0
21 -44 0
d 40 21 -44 0
-21 -44 0
d -21 -18 -44 0
-44 0
19 -21 0
-19 -21 0
d -25 -19 -21 0
-21 0
18 0
-37 0
11 0
-30 0
4 0
-23 0
19 0
-15 0
-14 0
-22 0
-38 0
-7 0
-8 0
41 0
40 0
3 0
12 0
33 0
34 0
-36 0
-16 0
-31 0
-29 0
10 0
42 0
20 0
5 0
-6 0
-9 0
-1 0
-39 0
-24 0
32 0
35 0
27 0
13 0
-43 0
-28 0
0
